97

Mn     -1.649792740000000     -3.631562840000000      3.202183320000000
O      -0.158144730000000      0.427571270000000      0.466019310000000
O      -3.502730790000000     -8.457397390000001      2.085242670000000
O      -1.128957710000000     -1.985389070000000      5.635017590000000
O      -2.919114670000000     -1.861472020000000      1.235675580000000
O      -4.425461040000000     -3.902528650000000      4.112116110000000
N       0.464004220000000     -3.323020080000000      2.959336630000000
N      -0.871507910000000     -5.585886800000000      3.519717760000000
C       1.108108610000000     -2.157348860000000      2.755620740000000
C       2.490112030000000     -2.052267380000000      2.836945450000000
C       3.273124320000000     -3.148665140000000      3.165502750000000
C       2.593089330000000     -4.329351890000000      3.417108020000000
C       1.210386610000000     -4.393852350000000      3.303223470000000
C       0.476044390000000     -5.653942910000000      3.536683070000000
C       1.172090600000000     -6.850316720000000      3.703930470000000
C       0.495964680000000     -8.042007330000001      3.840131820000000
C      -0.895561580000000     -7.962335240000000      3.817584300000000
C      -1.546916580000000     -6.755989120000000      3.662437960000000
C       4.791586910000000     -3.100687360000000      3.262988730000000
C       1.187046120000000     -9.394229640000001      3.927796380000000
C       0.318515860000000     -0.910273590000000      2.469281970000000
C       0.870180190000000     -0.066282480000000      1.307337160000000
C      -3.052592380000000     -6.708347770000000      3.636305670000000
C      -3.773151400000000     -8.017619509999999      3.410299540000000
C      -1.349276080000000     -2.683225410000000      4.747659570000000
C      -2.356632690000000     -2.539280750000000      2.007935110000000
C      -3.341456860000000     -3.856662400000000      3.713009510000000
C       5.219274110000000     -3.495473700000000      4.683326950000000
H       4.800160880000000     -2.809005660000000      5.420875720000000
H       4.893912210000000     -4.504616210000000      4.938792150000000
H       6.307409750000000     -3.464030730000000      4.765125480000000
C       5.383060220000000     -4.095295620000000      2.253376150000000
H       5.090526440000000     -3.835208260000000      1.234229530000000
H       6.473110810000000     -4.079237240000000      2.311054680000000
H       5.050763930000000     -5.115544400000000      2.449808120000000
C       5.342297400000000     -1.708428350000000      2.955998050000000
H       5.084920430000000     -1.385987440000000      1.945198140000000
H       4.972986700000000     -0.963438200000000      3.663200740000000
H       6.430447730000000     -1.725038120000000      3.031056220000000
C       2.708838110000000     -9.258412670000000      3.955831070000000
H       3.083862050000000     -8.789116630000001      3.044120930000000
H       3.045449690000000     -8.676043490000000      4.816312940000000
H       3.159747360000000    -10.249191500000000      4.029606280000000
C       0.794848000000000    -10.215918520000001      2.690127180000000
H       1.278240120000000    -11.194473260000001      2.724553240000000
H      -0.283816840000000    -10.374313799999999      2.638484720000000
H       1.110173660000000     -9.705258940000000      1.777932970000000
C       0.730896330000000    -10.120603559999999      5.199782220000000
H       0.993721950000000     -9.547608139999999      6.090827500000000
H      -0.347635170000000    -10.282970230000000      5.209409410000000
H       1.216040690000000    -11.096410960000000      5.264665430000000
H      -3.482709590000000     -8.795696919999999      4.126795580000000
H      -4.850794370000000     -7.855970810000000      3.529210250000000
H      -3.358550840000000     -6.020736460000000      2.849097000000000
H      -3.411911400000000     -6.267043260000000      4.568352260000000
H       2.246775430000000     -6.850938170000000      3.660890760000000
H      -1.481810730000000     -8.866044240000001      3.888546870000000
H       1.504018120000000     -0.673429890000000      0.659357980000000
H       1.471495190000000      0.775752700000000      1.671216570000000
H      -0.702698570000000     -1.185517030000000      2.237871340000000
H       0.267965120000000     -0.324168290000000      3.391491760000000
H       2.938484840000000     -1.085569140000000      2.656310190000000
H       3.148934470000000     -5.204709600000000      3.711845420000000
C      -1.023986080000000      1.348839720000000      1.107908790000000
H      -0.450716150000000      2.183232200000000      1.525790640000000
H      -1.707942830000000      1.724290080000000      0.351142570000000
H      -1.605040510000000      0.871825300000000      1.900496810000000
C      -4.076922370000000     -9.721141810000001      1.809460270000000
H      -3.850425890000000     -9.965017150000000      0.774043980000000
H      -3.654440210000000    -10.490864660000000      2.464009520000000
H      -5.162963720000000     -9.699183910000000      1.945117770000000
N      -1.264148610000000     -4.869965450000000      0.213082600000000
C      -1.421265860000000     -3.753483920000000     -0.744659850000000
H      -2.373848360000000     -3.265716260000000     -0.554394500000000
H      -1.430560920000000     -4.163268730000000     -1.760976670000000
C      -2.305265980000000     -5.891912920000000      0.015832800000000
H      -2.156177190000000     -6.666004740000000      0.769940710000000
H      -2.184081580000000     -6.351044660000000     -0.971697090000000
C       0.100542660000000     -5.436882370000000      0.110093420000000
H       0.764870430000000     -4.832295950000000      0.728834690000000
H       0.431537240000000     -5.337031140000000     -0.930885100000000
C      -0.328088430000000     -2.702177300000000     -0.610114310000000
H       0.647463270000000     -3.107955860000000     -0.898859910000000
H      -0.264532810000000     -2.401323610000000      0.437328680000000
C       0.267876000000000     -6.897237970000000      0.515949380000000
H      -0.224714490000000     -7.566045210000000     -0.195100760000000
H      -0.152911990000000     -7.094074030000000      1.497131680000000
C      -3.736233210000000     -5.388889350000000      0.162498510000000
H      -4.031798850000000     -4.761280960000000     -0.677183650000000
H      -3.835408130000000     -4.791176650000000      1.075462900000000
O      -0.645237900000000     -1.616442580000000     -1.450462170000000
O       1.653444340000000     -7.200658530000000      0.608072010000000
O      -4.605238260000000     -6.505638650000000      0.154828340000000
H      -0.649188170000000     -0.812924480000000     -0.906499710000000
H       2.031599070000000     -7.199242820000000     -0.277262930000000
H      -4.304550360000000     -7.128284530000000      0.835508520000000
H      -1.502720100000000     -4.309934740000000      1.398270340000000
